NAME: CVRP_BENCHMARK
TYPE: CVRP
COMMENT: none
DIMENSION: 151
NUM_DAYS: 5
CAPACITY: 200
DISTANCE: 200
EDGE_WEIGHT_TYPE: FUNCTION
EDGE_WEIGHT_FORMAT: EUC_2D
NODE_COORD_TYPE: TWOD_COORDS
NODE_COORD_SECTION
1	2.000 17.000
2	14.000 14.000
3	17.000 29.000
4	-15.000 -9.000
5	5.000 -5.000
6	-14.000 12.000
7	-18.000 28.000
8	-4.000 27.000
9	17.000 -2.000
10	16.000 -14.000
11	7.000 6.000
12	-4.000 -3.000
13	-30.000 -10.000
14	-23.000 7.000
15	1.000 -19.000
16	17.000 6.000
17	-8.000 -12.000
18	-18.000 -2.000
19	-22.000 -22.000
20	22.000 23.000
21	27.000 7.000
22	7.000 22.000
23	-19.000 22.000
24	-27.000 17.000
25	-28.000 3.000
26	-8.000 33.000
27	-5.000 13.000
28	8.000 32.000
29	23.000 13.000
30	23.000 -8.000
31	2.000 34.000
32	3.000 11.000
33	11.000 -25.000
34	26.000 -2.000
35	27.000 28.000
36	28.000 34.000
37	-3.000 -13.000
38	10.000 0.000
39	24.000 -20.000
40	-30.000 -29.000
41	-25.000 -18.000
42	-14.000 -25.000
43	-30.000 29.000
44	-5.000 -20.000
45	4.000 -25.000
46	-3.000 4.000
47	-10.000 -3.000
48	-10.000 20.000
49	13.000 -7.000
50	21.000 2.000
51	6.000 14.000
52	0.000 -18.000
53	20.000 10.000
54	20.000 -15.000
55	-20.000 -5.000
56	-10.000 -5.000
57	-15.000 15.000
58	-25.000 8.000
59	20.000 25.000
60	-5.000 25.000
61	-15.000 30.000
62	15.000 0.000
63	-5.000 -10.000
64	-20.000 -25.000
65	-5.000 -30.000
66	-25.000 -15.000
67	-30.000 -5.000
68	-15.000 5.000
69	-20.000 25.000
70	10.000 30.000
71	10.000 -15.000
72	10.000 -25.000
73	20.000 -30.000
74	30.000 0.000
75	30.000 -15.000
76	10.000 -5.000
77	0.000 5.000
78	6.000 2.000
79	29.000 7.000
80	5.000 25.000
81	-4.000 17.000
82	0.000 34.000
83	18.000 17.000
84	30.000 20.000
85	28.000 30.000
86	-33.000 25.000
87	-15.000 -15.000
88	-30.000 -30.000
89	25.000 -23.000
90	5.000 -10.000
91	7.000 -28.000
92	-11.000 -23.000
93	-12.000 -32.000
94	-24.000 -21.000
95	-29.000 3.000
96	-33.000 13.000
97	-27.000 21.000
98	-22.000 17.000
99	-29.000 33.000
100	12.000 12.000
101	14.000 23.000
102	-8.000 8.000
103	2.000 -4.000
104	22.000 -6.000
105	28.000 -12.000
106	18.000 -23.000
107	-3.000 -23.000
108	1.000 -9.000
109	-14.000 -11.000
110	-18.000 -1.000
111	-23.000 -11.000
112	-11.000 23.000
113	-8.000 34.000
114	-20.000 42.000
115	27.000 42.000
116	14.000 38.000
117	32.000 -30.000
118	21.000 4.000
119	2.000 12.000
120	2.000 21.000
121	22.000 33.000
122	12.000 -19.000
123	9.000 -18.000
124	11.000 -22.000
125	14.000 -24.000
126	14.000 7.000
127	18.000 8.000
128	26.000 17.000
129	22.000 13.000
130	21.000 2.000
131	20.000 19.000
132	-20.000 12.000
133	-21.000 2.000
134	-24.000 -4.000
135	-19.000 -13.000
136	-31.000 -17.000
137	-7.000 -17.000
138	-9.000 17.000
139	-9.000 0.000
140	-4.000 32.000
141	-20.000 -16.000
142	-13.000 -13.000
143	-17.000 -11.000
144	-9.000 -8.000
145	-10.000 -11.000
146	-13.000 -8.000
147	-10.000 -14.000
148	-16.000 -14.000
149	-15.000 -9.000
150	-17.000 -17.000
DEMAND_SECTION
1 7 7 7 7 7
2 30 30 -1 -1 30
3 -1 16 16 16 16
4 9 -1 9 -1 9
5 21 -1 -1 21 21
6 15 -1 15 15 15
7 19 19 19 19 19
8 23 23 23 -1 23
9 11 -1 11 11 11
10 -1 5 -1 -1 5
11 19 -1 19 -1 19
12 29 -1 -1 29 29
13 23 23 23 23 -1
14 -1 21 -1 21 -1
15 10 -1 -1 10 10
16 15 15 15 15 -1
17 3 3 3 -1 3
18 41 41 41 -1 -1
19 9 9 9 9 -1
20 28 28 28 28 28
21 8 8 -1 -1 8
22 -1 8 8 8 -1
23 16 16 16 -1 16
24 10 10 10 10 10
25 -1 -1 28 28 28
26 7 7 7 -1 7
27 -1 15 15 -1 -1
28 -1 -1 14 -1 14
29 -1 6 6 6 -1
30 19 19 19 19 -1
31 11 11 11 -1 11
32 12 12 12 12 12
33 23 -1 -1 23 23
34 26 26 26 26 26
35 17 -1 -1 17 -1
36 6 6 6 -1 6
37 9 9 9 9 9
38 15 -1 15 15 15
39 -1 14 14 14 14
40 7 7 7 7 7
41 -1 27 -1 27 27
42 -1 13 13 13 13
43 -1 -1 11 11 11
44 16 16 16 16 16
45 -1 10 10 10 10
46 -1 5 -1 -1 5
47 25 -1 25 25 25
48 -1 17 17 17 17
49 -1 18 18 18 18
50 10 -1 10 10 10
51 10 10 -1 10 10
52 7 -1 -1 7 7
53 13 13 -1 -1 13
54 19 19 19 -1 -1
55 26 26 -1 26 -1
56 -1 -1 -1 3 -1
57 -1 5 -1 -1 5
58 9 9 -1 9 -1
59 16 16 -1 16 16
60 16 16 16 -1 -1
61 -1 12 12 12 12
62 -1 19 19 -1 19
63 23 23 23 -1 23
64 20 20 20 -1 20
65 8 8 8 8 8
66 19 19 -1 19 19
67 2 -1 -1 2 -1
68 -1 -1 -1 12 12
69 -1 -1 17 17 17
70 9 9 9 9 9
71 11 11 11 11 -1
72 18 -1 18 18 18
73 29 29 -1 29 29
74 3 3 -1 3 3
75 -1 6 6 6 6
76 17 17 17 -1 17
77 -1 -1 -1 16 -1
78 16 -1 -1 16 16
79 -1 9 9 9 -1
80 21 21 21 -1 21
81 -1 27 27 27 27
82 -1 23 -1 -1 23
83 11 11 11 -1 11
84 14 -1 14 14 -1
85 8 -1 8 8 8
86 5 -1 5 -1 -1
87 -1 8 8 -1 8
88 16 16 16 -1 -1
89 -1 31 -1 31 31
90 9 -1 -1 9 9
91 5 5 5 5 5
92 5 -1 5 5 5
93 7 -1 7 7 -1
94 18 18 18 18 18
95 16 16 16 -1 -1
96 1 -1 -1 -1 1
97 27 -1 27 -1 -1
98 36 36 36 36 36
99 -1 30 -1 -1 30
100 13 13 13 13 13
101 10 -1 10 10 10
102 9 9 9 9 9
103 14 14 -1 14 14
104 18 -1 18 -1 18
105 2 2 -1 2 2
106 -1 6 6 6 6
107 7 -1 -1 7 7
108 18 -1 18 18 18
109 28 28 28 28 28
110 3 3 -1 -1 3
111 13 -1 -1 13 13
112 19 19 19 19 19
113 -1 10 -1 -1 10
114 9 9 9 9 9
115 20 20 20 -1 -1
116 25 25 -1 -1 25
117 25 25 25 -1 25
118 36 -1 36 -1 36
119 6 6 -1 6 6
120 5 5 5 5 5
121 15 15 15 15 15
122 25 25 25 25 -1
123 -1 9 -1 9 9
124 -1 8 8 8 8
125 18 -1 18 18 18
126 13 13 -1 13 13
127 14 14 14 14 -1
128 3 3 3 3 3
129 -1 23 23 23 -1
130 6 6 -1 6 6
131 26 26 26 26 26
132 -1 16 16 16 16
133 11 -1 11 -1 11
134 -1 -1 7 7 7
135 41 41 -1 -1 41
136 35 -1 35 35 -1
137 -1 26 26 26 26
138 9 9 9 9 9
139 -1 15 -1 -1 -1
140 3 -1 3 -1 3
141 1 1 -1 -1 -1
142 2 2 2 2 2
143 22 22 22 22 22
144 27 -1 27 -1 27
145 20 -1 20 -1 20
146 -1 11 -1 -1 11
147 12 -1 12 -1 12
148 10 10 10 10 -1
149 -1 9 -1 9 9
150 17 17 -1 17 17
SVC_TIME_SECTION
1	10.000000	10.000000	10.000000	10.000000	10.000000	
2	10.000000	10.000000	0.000000	0.000000	10.000000	
3	0.000000	10.000000	10.000000	10.000000	10.000000	
4	10.000000	0.000000	10.000000	0.000000	10.000000	
5	10.000000	0.000000	0.000000	10.000000	10.000000	
6	10.000000	0.000000	10.000000	10.000000	10.000000	
7	10.000000	10.000000	10.000000	10.000000	10.000000	
8	10.000000	10.000000	10.000000	0.000000	10.000000	
9	10.000000	0.000000	10.000000	10.000000	10.000000	
10	0.000000	10.000000	0.000000	0.000000	10.000000	
11	10.000000	0.000000	10.000000	0.000000	10.000000	
12	10.000000	0.000000	0.000000	10.000000	10.000000	
13	10.000000	10.000000	10.000000	10.000000	0.000000	
14	0.000000	10.000000	0.000000	10.000000	0.000000	
15	10.000000	0.000000	0.000000	10.000000	10.000000	
16	10.000000	10.000000	10.000000	10.000000	0.000000	
17	10.000000	10.000000	10.000000	0.000000	10.000000	
18	10.000000	10.000000	10.000000	0.000000	0.000000	
19	10.000000	10.000000	10.000000	10.000000	0.000000	
20	10.000000	10.000000	10.000000	10.000000	10.000000	
21	10.000000	10.000000	0.000000	0.000000	10.000000	
22	0.000000	10.000000	10.000000	10.000000	0.000000	
23	10.000000	10.000000	10.000000	0.000000	10.000000	
24	10.000000	10.000000	10.000000	10.000000	10.000000	
25	0.000000	0.000000	10.000000	10.000000	10.000000	
26	10.000000	10.000000	10.000000	0.000000	10.000000	
27	0.000000	10.000000	10.000000	0.000000	0.000000	
28	0.000000	0.000000	10.000000	0.000000	10.000000	
29	0.000000	10.000000	10.000000	10.000000	0.000000	
30	10.000000	10.000000	10.000000	10.000000	0.000000	
31	10.000000	10.000000	10.000000	0.000000	10.000000	
32	10.000000	10.000000	10.000000	10.000000	10.000000	
33	10.000000	0.000000	0.000000	10.000000	10.000000	
34	10.000000	10.000000	10.000000	10.000000	10.000000	
35	10.000000	0.000000	0.000000	10.000000	0.000000	
36	10.000000	10.000000	10.000000	0.000000	10.000000	
37	10.000000	10.000000	10.000000	10.000000	10.000000	
38	10.000000	0.000000	10.000000	10.000000	10.000000	
39	0.000000	10.000000	10.000000	10.000000	10.000000	
40	10.000000	10.000000	10.000000	10.000000	10.000000	
41	0.000000	10.000000	0.000000	10.000000	10.000000	
42	0.000000	10.000000	10.000000	10.000000	10.000000	
43	0.000000	0.000000	10.000000	10.000000	10.000000	
44	10.000000	10.000000	10.000000	10.000000	10.000000	
45	0.000000	10.000000	10.000000	10.000000	10.000000	
46	0.000000	10.000000	0.000000	0.000000	10.000000	
47	10.000000	0.000000	10.000000	10.000000	10.000000	
48	0.000000	10.000000	10.000000	10.000000	10.000000	
49	0.000000	10.000000	10.000000	10.000000	10.000000	
50	10.000000	0.000000	10.000000	10.000000	10.000000	
51	10.000000	10.000000	0.000000	10.000000	10.000000	
52	10.000000	0.000000	0.000000	10.000000	10.000000	
53	10.000000	10.000000	0.000000	0.000000	10.000000	
54	10.000000	10.000000	10.000000	0.000000	0.000000	
55	10.000000	10.000000	0.000000	10.000000	0.000000	
56	0.000000	0.000000	0.000000	10.000000	0.000000	
57	0.000000	10.000000	0.000000	0.000000	10.000000	
58	10.000000	10.000000	0.000000	10.000000	0.000000	
59	10.000000	10.000000	0.000000	10.000000	10.000000	
60	10.000000	10.000000	10.000000	0.000000	0.000000	
61	0.000000	10.000000	10.000000	10.000000	10.000000	
62	0.000000	10.000000	10.000000	0.000000	10.000000	
63	10.000000	10.000000	10.000000	0.000000	10.000000	
64	10.000000	10.000000	10.000000	0.000000	10.000000	
65	10.000000	10.000000	10.000000	10.000000	10.000000	
66	10.000000	10.000000	0.000000	10.000000	10.000000	
67	10.000000	0.000000	0.000000	10.000000	0.000000	
68	0.000000	0.000000	0.000000	10.000000	10.000000	
69	0.000000	0.000000	10.000000	10.000000	10.000000	
70	10.000000	10.000000	10.000000	10.000000	10.000000	
71	10.000000	10.000000	10.000000	10.000000	0.000000	
72	10.000000	0.000000	10.000000	10.000000	10.000000	
73	10.000000	10.000000	0.000000	10.000000	10.000000	
74	10.000000	10.000000	0.000000	10.000000	10.000000	
75	0.000000	10.000000	10.000000	10.000000	10.000000	
76	10.000000	10.000000	10.000000	0.000000	10.000000	
77	0.000000	0.000000	0.000000	10.000000	0.000000	
78	10.000000	0.000000	0.000000	10.000000	10.000000	
79	0.000000	10.000000	10.000000	10.000000	0.000000	
80	10.000000	10.000000	10.000000	0.000000	10.000000	
81	0.000000	10.000000	10.000000	10.000000	10.000000	
82	0.000000	10.000000	0.000000	0.000000	10.000000	
83	10.000000	10.000000	10.000000	0.000000	10.000000	
84	10.000000	0.000000	10.000000	10.000000	0.000000	
85	10.000000	0.000000	10.000000	10.000000	10.000000	
86	10.000000	0.000000	10.000000	0.000000	0.000000	
87	0.000000	10.000000	10.000000	0.000000	10.000000	
88	10.000000	10.000000	10.000000	0.000000	0.000000	
89	0.000000	10.000000	0.000000	10.000000	10.000000	
90	10.000000	0.000000	0.000000	10.000000	10.000000	
91	10.000000	10.000000	10.000000	10.000000	10.000000	
92	10.000000	0.000000	10.000000	10.000000	10.000000	
93	10.000000	0.000000	10.000000	10.000000	0.000000	
94	10.000000	10.000000	10.000000	10.000000	10.000000	
95	10.000000	10.000000	10.000000	0.000000	0.000000	
96	10.000000	0.000000	0.000000	0.000000	10.000000	
97	10.000000	0.000000	10.000000	0.000000	0.000000	
98	10.000000	10.000000	10.000000	10.000000	10.000000	
99	0.000000	10.000000	0.000000	0.000000	10.000000	
100	10.000000	10.000000	10.000000	10.000000	10.000000	
101	10.000000	0.000000	10.000000	10.000000	10.000000	
102	10.000000	10.000000	10.000000	10.000000	10.000000	
103	10.000000	10.000000	0.000000	10.000000	10.000000	
104	10.000000	0.000000	10.000000	0.000000	10.000000	
105	10.000000	10.000000	0.000000	10.000000	10.000000	
106	0.000000	10.000000	10.000000	10.000000	10.000000	
107	10.000000	0.000000	0.000000	10.000000	10.000000	
108	10.000000	0.000000	10.000000	10.000000	10.000000	
109	10.000000	10.000000	10.000000	10.000000	10.000000	
110	10.000000	10.000000	0.000000	0.000000	10.000000	
111	10.000000	0.000000	0.000000	10.000000	10.000000	
112	10.000000	10.000000	10.000000	10.000000	10.000000	
113	0.000000	10.000000	0.000000	0.000000	10.000000	
114	10.000000	10.000000	10.000000	10.000000	10.000000	
115	10.000000	10.000000	10.000000	0.000000	0.000000	
116	10.000000	10.000000	0.000000	0.000000	10.000000	
117	10.000000	10.000000	10.000000	0.000000	10.000000	
118	10.000000	0.000000	10.000000	0.000000	10.000000	
119	10.000000	10.000000	0.000000	10.000000	10.000000	
120	10.000000	10.000000	10.000000	10.000000	10.000000	
121	10.000000	10.000000	10.000000	10.000000	10.000000	
122	10.000000	10.000000	10.000000	10.000000	0.000000	
123	0.000000	10.000000	0.000000	10.000000	10.000000	
124	0.000000	10.000000	10.000000	10.000000	10.000000	
125	10.000000	0.000000	10.000000	10.000000	10.000000	
126	10.000000	10.000000	0.000000	10.000000	10.000000	
127	10.000000	10.000000	10.000000	10.000000	0.000000	
128	10.000000	10.000000	10.000000	10.000000	10.000000	
129	0.000000	10.000000	10.000000	10.000000	0.000000	
130	10.000000	10.000000	0.000000	10.000000	10.000000	
131	10.000000	10.000000	10.000000	10.000000	10.000000	
132	0.000000	10.000000	10.000000	10.000000	10.000000	
133	10.000000	0.000000	10.000000	0.000000	10.000000	
134	0.000000	0.000000	10.000000	10.000000	10.000000	
135	10.000000	10.000000	0.000000	0.000000	10.000000	
136	10.000000	0.000000	10.000000	10.000000	0.000000	
137	0.000000	10.000000	10.000000	10.000000	10.000000	
138	10.000000	10.000000	10.000000	10.000000	10.000000	
139	0.000000	10.000000	0.000000	0.000000	0.000000	
140	10.000000	0.000000	10.000000	0.000000	10.000000	
141	10.000000	10.000000	0.000000	0.000000	0.000000	
142	10.000000	10.000000	10.000000	10.000000	10.000000	
143	10.000000	10.000000	10.000000	10.000000	10.000000	
144	10.000000	0.000000	10.000000	0.000000	10.000000	
145	10.000000	0.000000	10.000000	0.000000	10.000000	
146	0.000000	10.000000	0.000000	0.000000	10.000000	
147	10.000000	0.000000	10.000000	0.000000	10.000000	
148	10.000000	10.000000	10.000000	10.000000	0.000000	
149	0.000000	10.000000	0.000000	10.000000	10.000000	
150	10.000000	10.000000	0.000000	10.000000	10.000000	
DEPOT_SECTION
0.0000 0.00000
-1
EOF

